<number of tasks>
20

<cycle time>
1000

<order strength>
0,179


<task times>
1 162
2 220
3 322
4 45
5 219
6 393
7 250
8 485
9 35
10 146
11 478
12 28
13 310
14 82
15 134
16 48
17 20
18 99
19 284
20 73

<precedence relations>
2,10
3,7
3,8
4,6
5,9
7,11
9,15
10,12
10,13
10,14
14,16
16,17
16,18
16,19
16,20

<end>
